Route #1: 22 21 20 29 25 18
Route #2: 136 135 133 127 129 128 26 24 34 17 28 35 31 23 16 19 140
Route #3: 93 86 90 53 88 85 97 98 87
Route #4: 51 42 49 54 83 80 79 84 81 82 78 65 66 67 64
Route #5: 40 46 38 47 45 37 44 43 96
Route #6: 116 125 118 120 124 123 121 122 119 101
Route #7: 137 143 138 139 32 27 30 33 141 142 126 131 134 132 130 112 109
Route #8: 104 106 100 107
Route #9: 74 69 55 56 58 61 57 60 62 63 59 73 68 12 71
Route #10: 10 5 77 72 75 76
Route #11: 9 15 110 115 113 114 117 111 99 102 105 108 103
Route #12: 2 4
Route #13: 6 1 11
Route #14: 8 70 149 146 148 147 150 145 144 91 89 92 39 52 41 3 14
Route #15: 13 36 48 50 94 95 7
Cost 2453.481596432108